Maximize
  z
Subject To
 R0: z - 0.3333333333333333 p_A - 0.3333333333333333 p_B
   - 0.3333333333333333 u_1 - 0.3333333333333333 u_2
   - 0.3333333333333333 u_3 <= 0
 R1: z + 0.6666666666666667 p_A + 0.6666666666666667 p_B
   + 0.6666666666666667 u_1 + 0.6666666666666667 u_2
   - 0.3333333333333333 u_3 <= -7
 R2: z + 0.6666666666666667 p_A + 0.6666666666666667 p_B
   - 0.3333333333333333 u_1 + 0.6666666666666667 u_2
   + 0.6666666666666667 u_3 <= -4
 R3: z + 0.6666666666666667 p_A - 0.3333333333333333 p_B
   + 0.6666666666666667 u_1 - 0.3333333333333333 u_2
   - 0.3333333333333333 u_3 <= -6
 R4: z - 0.3333333333333333 p_A + 0.6666666666666667 p_B
   + 0.6666666666666667 u_1 - 0.3333333333333333 u_2
   - 0.3333333333333333 u_3 <= -6
 R5: z + 0.6666666666666667 p_A - 0.3333333333333333 p_B
   - 0.3333333333333333 u_1 - 0.3333333333333333 u_2
   + 0.6666666666666667 u_3 <= -3
Bounds
 z free
 -infinity <= p_A <= 0
 -infinity <= p_B <= 0
 -infinity <= u_1 <= 0
 -infinity <= u_2 <= 0
 -infinity <= u_3 <= 0
End
